N = 6;
Capacity = 15;
Demand = [7, 3, 8, 10, 8, 6];
Distance = [|
  0, 52, 19, 49, 45, 28, 50
| 52, 0, 58, 12, 72, 38, 102
| 19, 58, 0, 51, 63, 22, 50
| 49, 12, 51, 0, 77, 29, 98
| 45, 72, 63, 77, 0, 69, 63
| 28, 38, 22, 29, 69, 0, 72
| 50, 102, 50, 98, 63, 72, 0
|];
